NAME : XML100_3261_22
DIMENSION : 101
NB_CLUSTERS : 3
CLUSTERING_ALG : DBSCAN
CLUSTERING_PARAMS : eps(104), minSamples(3)
CLUSTERS
1 0
2 1 2 3 4 6 7 8 9 10 11 12 13 14 15 16 17 19 20 21 22 25 26 27 28 29 31 33 34 35 37 38 39 40 41 42 43 46 48 49 51 52 55 57 58 60 62 64 65 67 69 70 71 73 74 77 78 79 80 82 83 85 86 87 88 89 90 91 92 93 95 96 97 98 100
3 5 18 23 24 30 32 36 44 45 47 50 53 54 56 59 61 63 66 68 72 75 76 81 84 94 99
EOF